543 5
10 10 10 10 10 

0 0 0 0 0 0 5 2 14 26 38 50 
0 0 0 0 0 0 3 3 4 6 
3 1 0 0 0 0 2 7 5 
4 7 0 0 0 0 2 7 5 
9 9 0 0 0 0 2 9 8 
10 10 0 0 0 0 2 9 8 
9 10 0 0 0 0 2 8 398 
8 6 0 0 0 0 2 11 10 
4 9 0 0 0 0 1 10 
2 10 0 0 0 0 1 12 
1 6 0 0 0 0 1 12 
8 7 0 0 0 0 1 13 
0 0 0 0 0 0 1 62 
0 0 0 0 0 0 4 15 22 23 24 
1 0 0 2 0 0 2 21 16 
1 0 0 10 0 0 1 17 
1 0 0 4 0 0 2 20 18 
8 0 0 10 0 0 1 19 
3 0 0 10 0 0 1 25 
5 0 0 5 0 0 2 25 181 
4 0 0 5 0 0 1 25 
4 0 0 10 0 0 1 25 
9 0 0 10 0 0 1 25 
2 0 0 9 0 0 1 25 
0 0 0 0 0 0 1 62 
0 0 0 0 0 0 5 27 30 35 36 284 
9 0 0 0 3 0 1 28 
8 0 0 0 6 0 2 34 29 
6 0 0 0 7 0 2 33 31 
5 0 0 0 7 0 2 33 32 
8 0 0 0 10 0 1 32 
3 0 0 0 10 0 1 37 
4 0 0 0 4 0 1 37 
3 0 0 0 10 0 1 37 
4 0 0 0 8 0 1 37 
2 0 0 0 10 0 1 37 
0 0 0 0 0 0 1 62 
0 0 0 0 0 0 2 39 40 
6 0 0 7 0 0 2 42 41 
10 0 0 2 0 0 2 43 42 
2 0 0 10 0 0 2 44 43 
10 0 0 3 0 0 2 45 44 
6 0 0 8 0 0 2 46 45 
1 0 0 8 0 0 2 48 46 
5 0 0 10 0 0 3 48 47 512 
9 0 0 8 0 0 1 47 
10 0 0 10 0 0 1 49 
3 0 0 9 0 0 1 49 
0 0 0 0 0 0 1 62 
0 0 0 0 0 0 4 51 59 60 395 
4 0 0 7 0 0 2 58 52 
6 0 0 6 0 0 1 53 
10 0 0 4 0 0 3 57 56 54 
6 0 0 7 0 0 1 55 
9 0 0 10 0 0 1 61 
1 0 0 8 0 0 1 61 
3 0 0 9 0 0 1 61 
5 0 0 6 0 0 1 61 
4 0 0 8 0 0 1 61 
9 0 0 10 0 0 1 61 
0 0 0 0 0 0 1 62 
0 0 0 0 0 0 5 63 105 147 189 201 
0 0 0 0 0 0 2 64 65 
4 4 0 8 7 2 1 66 
3 5 0 5 6 6 1 66 
3 10 0 4 7 5 2 68 67 
8 9 0 5 5 10 4 76 72 71 69 
2 8 0 5 10 7 4 76 72 71 70 
10 7 0 5 7 6 1 70 
9 9 0 9 3 10 3 75 74 73 
10 9 0 6 5 8 3 75 74 73 
8 5 0 4 10 6 2 74 73 
10 6 0 6 10 7 2 80 77 
2 2 0 9 6 10 2 80 77 
7 8 0 10 8 8 2 80 77 
6 10 0 5 5 10 2 80 79 
4 7 0 10 10 9 1 78 
1 6 0 8 10 8 1 79 
3 9 0 9 7 9 2 82 81 
2 7 0 10 5 9 1 81 
3 10 0 9 7 8 3 85 84 83 
9 9 0 10 10 8 3 86 85 84 
5 9 0 8 5 9 3 91 88 86 
1 8 0 6 10 3 3 91 90 87 
6 8 0 4 7 7 3 88 87 238 
3 5 0 4 8 5 1 87 
5 9 0 7 10 9 2 93 89 
3 8 0 9 10 10 1 90 
2 7 0 10 5 7 2 94 92 
1 10 0 10 7 10 2 94 92 
8 7 0 6 5 5 2 95 93 
8 5 0 4 5 10 2 97 95 
2 9 0 8 7 10 1 94 
10 9 0 9 9 6 3 98 97 96 
1 6 0 10 9 9 2 98 96 
2 4 0 6 10 10 2 100 99 
6 10 0 10 9 6 2 100 99 
9 8 0 7 8 7 2 101 100 
1 8 0 9 6 7 2 103 101 
6 3 0 9 4 10 2 103 102 
4 7 0 8 10 6 1 102 
9 10 0 9 9 5 1 104 
8 10 0 10 9 3 1 104 
0 0 0 0 0 0 1 543 
0 0 0 0 0 0 2 106 108 
2 6 6 3 5 0 1 107 
2 6 4 6 10 0 2 110 109 
5 10 10 8 3 0 2 111 109 
8 7 10 6 9 0 4 121 114 113 112 
7 10 9 9 6 0 3 114 113 111 
5 3 8 10 5 0 1 112 
9 9 9 10 9 0 3 117 116 115 
6 7 6 8 6 0 2 118 116 
9 9 9 5 10 0 2 118 116 
2 10 8 7 10 0 2 122 118 
8 6 7 10 10 0 2 122 119 
1 10 5 8 9 0 2 122 119 
10 9 5 7 7 0 1 119 
8 5 10 10 8 0 1 120 
6 7 10 7 10 0 3 127 124 123 
6 1 7 10 6 0 2 127 122 
7 6 5 10 7 0 2 126 125 
3 7 6 10 7 0 3 130 128 126 
1 8 10 9 10 0 1 125 
4 10 7 7 4 0 3 131 130 128 
5 10 7 10 8 0 3 136 132 131 
5 8 9 10 6 0 3 136 135 132 
9 8 7 5 4 0 1 129 
5 9 5 6 9 0 2 136 132 
10 6 5 6 8 0 3 137 135 134 
3 9 10 7 9 0 2 137 134 
8 7 10 10 8 0 1 133 
7 7 6 10 9 0 2 138 134 
9 10 10 8 8 0 2 140 139 
3 10 5 7 3 0 2 140 139 
7 10 10 3 7 0 1 137 
5 9 3 9 7 0 1 138 
7 8 7 2 6 0 3 145 142 141 
8 7 9 5 10 0 3 145 142 141 
7 5 8 10 8 0 2 145 142 
6 4 7 4 10 0 1 143 
1 9 10 5 9 0 1 144 
9 4 7 5 8 0 1 144 
4 6 10 10 4 0 1 146 
6 8 4 8 8 0 1 146 
0 0 0 0 0 0 1 543 
0 0 0 0 0 0 2 148 150 
1 4 0 1 7 3 1 149 
8 9 0 10 2 7 2 152 151 
9 10 0 10 10 9 2 153 151 
7 5 0 9 4 10 4 163 156 155 154 
6 4 0 3 8 6 3 156 155 153 
1 7 0 5 9 10 1 154 
5 2 0 7 7 8 3 160 158 157 
4 9 0 7 9 10 3 166 160 159 
7 8 0 10 10 7 3 166 160 159 
6 10 0 7 6 7 2 166 159 
7 8 0 8 5 10 2 166 161 
8 6 0 9 9 10 1 161 
8 9 0 5 6 8 1 161 
10 8 0 6 6 5 2 168 162 
9 10 0 10 9 10 3 171 167 164 
2 5 0 8 7 9 2 166 165 
5 9 0 8 9 5 1 165 
4 6 0 10 6 10 3 175 172 169 
3 7 0 6 8 7 3 172 171 170 
2 4 0 8 7 8 3 178 175 169 
5 3 0 10 5 10 3 178 177 173 
7 10 0 9 9 7 1 170 
7 10 0 9 8 5 2 177 173 
6 10 0 7 8 8 2 175 174 
2 6 0 8 10 8 3 179 178 176 
1 10 0 4 8 7 1 174 
8 4 0 7 6 6 2 180 176 
4 8 0 5 8 7 2 181 179 
2 10 0 5 6 8 2 182 181 
2 9 0 4 6 7 1 179 
6 7 0 6 6 3 2 187 181 
7 6 0 10 10 7 1 180 
4 10 0 10 10 7 3 187 186 183 
5 10 0 10 9 7 2 186 183 
8 8 0 9 10 7 3 187 186 185 
1 9 0 9 7 7 1 184 
2 10 0 10 9 10 1 185 
6 4 0 6 7 5 1 188 
3 6 0 7 6 5 1 188 
8 10 0 8 8 10 1 188 
0 0 0 0 0 0 1 543 
0 0 0 0 0 0 2 190 194 
4 3 0 0 0 0 2 193 191 
6 5 0 0 0 0 3 199 196 192 
4 10 0 0 0 0 2 198 195 
6 4 0 0 0 0 2 198 195 
1 7 0 0 0 0 2 199 197 
4 9 0 0 0 0 1 197 
10 9 0 0 0 0 1 198 
3 10 0 0 0 0 1 200 
7 8 0 0 0 0 1 200 
9 10 0 0 0 0 1 200 
0 0 0 0 0 0 5 243 275 287 319 351 
0 0 0 0 0 0 2 202 205 
5 6 3 4 3 0 1 203 
6 3 10 6 10 0 2 206 204 
5 8 6 7 9 0 4 219 214 211 207 
7 10 6 5 6 0 3 219 211 208 
7 9 9 5 7 0 4 227 219 213 209 
2 10 10 4 6 0 1 208 
9 6 9 9 10 0 2 213 209 
8 8 4 10 7 0 2 223 210 
9 6 9 5 6 0 1 212 
7 10 7 8 6 0 1 213 
8 7 10 10 10 0 3 226 222 215 
6 10 5 9 9 0 3 226 222 215 
6 10 10 6 8 0 5 232 226 222 218 216 
10 10 6 7 10 0 3 232 218 216 
2 7 6 2 9 0 1 217 
9 4 6 9 8 0 4 241 236 229 220 
10 9 9 10 9 0 2 229 220 
7 10 6 10 10 0 4 236 232 226 225 
8 8 9 8 7 0 2 240 221 
9 5 6 9 9 0 2 234 224 
7 9 7 7 7 0 2 241 225 
10 9 8 8 10 0 2 233 226 
4 10 7 10 7 0 1 225 
6 10 8 4 4 0 1 228 
8 4 10 10 6 0 3 239 234 231 
5 3 7 9 7 0 3 239 234 231 
1 10 3 7 10 0 2 238 230 
8 5 7 10 5 0 2 234 231 
6 5 9 6 6 0 2 239 233 
2 10 6 10 7 0 2 238 235 
7 4 10 6 4 0 1 233 
9 10 7 10 8 0 1 235 
7 9 9 8 5 0 1 235 
2 5 10 8 8 0 1 237 
3 5 2 9 6 0 1 238 
1 10 6 7 6 0 1 242 
10 6 10 9 10 0 1 242 
3 5 8 6 10 0 1 242 
4 6 10 8 9 0 1 242 
2 9 10 5 6 0 1 242 
0 0 0 0 0 0 1 543 
0 0 0 0 0 0 3 244 245 273 
6 4 5 0 0 6 2 272 246 
3 4 8 0 0 7 2 272 246 
8 10 8 0 0 1 2 250 247 
5 6 10 0 0 9 2 254 248 
8 7 9 0 0 8 2 271 249 
7 8 10 0 0 6 2 261 251 
9 9 7 0 0 10 2 254 252 
5 8 10 0 0 8 1 252 
9 7 3 0 0 5 3 265 257 253 
7 4 7 0 0 7 2 262 255 
8 5 8 0 0 9 2 265 255 
10 10 9 0 0 9 1 256 
7 6 8 0 0 10 2 270 258 
10 7 10 0 0 10 2 270 259 
6 6 6 0 0 6 1 259 
4 8 5 0 0 8 3 268 264 260 
9 8 5 0 0 10 3 269 267 263 
8 8 10 0 0 2 3 268 267 263 
2 10 10 0 0 10 1 263 
4 7 8 0 0 8 1 266 
10 7 8 0 0 10 1 267 
10 7 9 0 0 8 1 270 
6 7 6 0 0 7 1 274 
1 10 7 0 0 10 1 274 
9 9 6 0 0 10 1 274 
6 8 6 0 0 5 1 274 
2 6 6 0 0 9 1 274 
2 9 6 0 0 5 1 274 
10 10 10 0 0 6 1 274 
6 10 5 0 0 6 1 274 
0 0 0 0 0 0 1 543 
0 0 0 0 0 0 2 276 277 
2 0 5 0 0 0 2 282 278 
8 0 7 0 0 0 4 285 282 280 279 
8 0 3 0 0 0 3 285 280 279 
5 0 10 0 0 0 2 284 283 
4 0 10 0 0 0 1 281 
1 0 10 0 0 0 1 283 
7 0 6 0 0 0 1 284 
5 0 10 0 0 0 1 286 
10 0 5 0 0 0 1 286 
6 0 9 0 0 0 1 286 
0 0 0 0 0 0 5 383 405 427 449 461 
0 0 0 0 0 0 3 288 289 317 
10 0 0 7 4 4 2 316 290 
6 0 0 6 3 10 2 316 290 
3 0 0 10 10 6 2 294 291 
1 0 0 7 4 9 2 298 292 
10 0 0 6 9 7 2 315 293 
8 0 0 10 7 8 2 306 295 
7 0 0 5 10 10 3 301 298 296 
2 0 0 8 7 9 2 301 296 
3 0 0 10 8 9 2 309 297 
10 0 0 8 6 7 2 305 299 
9 0 0 8 8 8 2 309 299 
4 0 0 10 6 9 1 300 
3 0 0 5 5 10 2 314 302 
9 0 0 4 3 5 4 314 313 308 304 
2 0 0 10 10 5 1 303 
10 0 0 8 9 9 3 313 308 304 
7 0 0 8 10 4 3 312 311 307 
4 0 0 10 6 6 1 307 
2 0 0 8 8 5 1 307 
10 0 0 7 5 8 1 310 
3 0 0 7 10 10 1 311 
6 0 0 6 10 10 1 314 
9 0 0 10 10 10 1 318 
9 0 0 9 10 6 1 318 
9 0 0 3 8 10 1 318 
6 0 0 10 8 5 1 318 
6 0 0 6 7 6 1 318 
9 0 0 6 8 4 1 318 
9 0 0 5 9 6 1 318 
1 0 0 8 7 10 1 318 
0 0 0 0 0 0 1 543 
0 0 0 0 0 0 3 320 321 338 
6 7 0 3 1 0 2 343 322 
6 5 0 7 9 0 2 343 322 
2 9 0 10 5 0 2 326 323 
10 7 0 10 6 0 2 330 324 
6 9 0 10 10 0 2 349 325 
10 7 0 4 4 0 2 336 327 
3 6 0 10 7 0 2 330 328 
2 9 0 6 7 0 1 328 
1 4 0 7 8 0 3 342 333 329 
4 5 0 10 5 0 2 339 331 
8 10 0 10 6 0 2 342 331 
7 10 0 7 10 0 1 332 
9 5 0 9 9 0 2 348 334 
3 8 0 10 7 0 2 348 335 
4 7 0 4 6 0 1 335 
9 10 0 7 6 0 3 347 341 337 
4 7 0 10 8 0 2 347 337 
2 6 0 7 7 0 3 346 345 340 
6 10 0 10 10 0 3 348 346 341 
1 10 0 9 10 0 1 340 
7 7 0 7 8 0 1 344 
8 5 0 4 6 0 1 345 
4 10 0 7 9 0 1 348 
2 6 0 5 7 0 1 344 
1 10 0 7 10 0 1 350 
3 5 0 8 10 0 1 350 
3 5 0 7 7 0 1 350 
9 7 0 6 10 0 1 350 
7 9 0 7 9 0 1 350 
10 10 0 7 8 0 1 350 
0 0 0 0 0 0 1 543 
0 0 0 0 0 0 3 352 353 362 
10 3 0 4 0 5 2 369 354 
9 6 0 6 0 8 2 369 354 
4 10 0 8 0 3 2 358 355 
8 10 0 5 0 10 2 361 356 
6 10 0 4 0 9 2 371 357 
7 7 0 9 0 8 2 368 359 
6 6 0 2 0 5 2 361 360 
10 8 0 6 0 10 1 360 
4 6 0 9 0 2 3 376 367 363 
3 5 0 10 0 10 2 376 363 
1 8 0 8 0 8 4 373 371 367 366 
2 9 0 10 0 10 2 373 364 
9 6 0 8 0 8 1 365 
2 10 0 9 0 10 1 366 
10 7 0 10 0 9 2 381 370 
10 7 0 8 0 6 2 381 370 
1 8 0 6 0 7 2 381 370 
1 6 0 9 0 8 2 381 370 
9 8 0 9 0 7 3 380 375 372 
9 4 0 10 0 9 3 380 375 372 
4 10 0 10 0 10 3 379 378 374 
6 10 0 6 0 9 1 374 
2 5 0 6 0 9 1 377 
4 7 0 7 0 8 1 378 
10 9 0 10 0 5 1 381 
4 8 0 10 0 10 1 382 
9 10 0 3 0 8 1 382 
9 6 0 8 0 4 1 382 
2 9 0 6 0 6 1 382 
1 7 0 9 0 4 1 382 
0 0 0 0 0 0 1 543 
0 0 0 0 0 0 3 384 386 403 
5 3 6 0 0 0 3 402 401 385 
2 4 5 0 0 0 4 400 399 398 387 
6 6 6 0 0 0 3 399 398 387 
3 10 5 0 0 0 3 397 394 388 
3 10 9 0 0 0 2 396 389 
2 5 10 0 0 0 1 390 
2 5 8 0 0 0 1 391 
9 6 7 0 0 0 1 392 
9 6 8 0 0 0 1 393 
10 5 9 0 0 0 1 395 
8 9 6 0 0 0 1 396 
5 10 9 0 0 0 1 404 
6 10 7 0 0 0 1 404 
5 10 6 0 0 0 1 404 
1 10 5 0 0 0 1 404 
6 7 7 0 0 0 1 404 
7 10 9 0 0 0 1 404 
9 7 10 0 0 0 1 404 
2 10 8 0 0 0 1 404 
3 7 10 0 0 0 1 404 
0 0 0 0 0 0 1 543 
0 0 0 0 0 0 2 406 407 
4 1 1 0 0 0 2 410 409 
2 4 7 0 0 0 2 412 408 
5 9 10 0 0 0 1 410 
8 8 6 0 0 0 3 417 413 412 
5 9 8 0 0 0 2 415 411 
1 10 7 0 0 0 2 417 413 
9 8 5 0 0 0 3 419 415 414 
7 4 5 0 0 0 2 419 414 
4 10 10 0 0 0 2 418 416 
9 10 10 0 0 0 2 418 416 
9 6 10 0 0 0 4 425 422 421 420 
9 8 9 0 0 0 3 425 421 420 
2 9 10 0 0 0 2 425 423 
7 10 5 0 0 0 1 420 
2 9 8 0 0 0 1 423 
6 10 10 0 0 0 1 423 
8 7 7 0 0 0 1 423 
7 10 3 0 0 0 1 424 
10 4 9 0 0 0 1 426 
2 4 10 0 0 0 1 426 
0 0 0 0 0 0 1 543 
0 0 0 0 0 0 1 428 
4 0 6 0 1 0 2 434 429 
3 0 6 0 6 0 1 430 
9 0 10 0 10 0 4 447 446 444 431 
1 0 7 0 10 0 2 445 432 
4 0 8 0 6 0 2 440 433 
2 0 7 0 10 0 4 443 442 441 435 
5 0 10 0 9 0 3 444 440 436 
4 0 5 0 9 0 2 439 436 
9 0 10 0 4 0 1 437 
2 0 6 0 9 0 1 438 
1 0 7 0 6 0 1 448 
3 0 4 0 10 0 1 448 
7 0 10 0 10 0 1 448 
1 0 10 0 5 0 1 448 
4 0 7 0 6 0 1 448 
10 0 6 0 9 0 1 448 
10 0 7 0 10 0 1 448 
8 0 6 0 5 0 1 448 
1 0 8 0 10 0 1 448 
5 0 10 0 5 0 1 448 
0 0 0 0 0 0 1 543 
0 0 0 0 0 0 4 450 453 454 455 
1 0 0 0 5 0 2 459 451 
3 0 0 0 6 0 1 452 
6 0 0 0 7 0 2 458 456 
9 0 0 0 8 0 2 459 456 
8 0 0 0 10 0 2 459 458 
10 0 0 0 8 0 1 456 
6 0 0 0 8 0 1 457 
3 0 0 0 10 0 1 460 
2 0 0 0 5 0 1 460 
5 0 0 0 8 0 1 460 
0 0 0 0 0 0 5 483 495 507 519 531 
0 0 0 0 0 0 1 462 
8 3 0 0 3 0 1 463 
2 8 0 0 6 0 2 465 464 
10 7 0 0 4 0 1 466 
6 9 0 0 7 0 1 466 
10 9 0 0 4 0 2 469 467 
9 9 0 0 5 0 2 471 468 
10 10 0 0 10 0 2 478 470 
8 5 0 0 10 0 2 471 470 
9 10 0 0 10 0 3 474 473 472 
6 6 0 0 10 0 5 481 480 477 476 475 
2 10 0 0 6 0 4 481 480 477 475 
9 10 0 0 10 0 4 481 480 476 475 
2 7 0 0 9 0 4 481 477 476 475 
7 7 0 0 10 0 1 479 
1 8 0 0 9 0 1 479 
6 5 0 0 9 0 1 479 
1 5 0 0 6 0 1 480 
4 5 0 0 8 0 1 482 
2 9 0 0 6 0 1 482 
9 8 0 0 8 0 1 482 
0 0 0 0 0 0 1 543 
0 0 0 0 0 0 3 484 489 493 
7 0 0 1 0 0 2 487 485 
4 0 0 7 0 0 2 491 486 
4 0 0 9 0 0 2 492 488 
7 0 0 9 0 0 2 491 490 
5 0 0 7 0 0 1 490 
9 0 0 10 0 0 1 490 
9 0 0 9 0 0 1 494 
5 0 0 6 0 0 1 494 
1 0 0 9 0 0 1 494 
9 0 0 8 0 0 1 494 
0 0 0 0 0 0 1 543 
0 0 0 0 0 0 6 496 498 500 502 504 505 
4 5 0 0 0 0 1 497 
3 8 0 0 0 0 1 499 
7 6 0 0 0 0 1 499 
7 10 0 0 0 0 1 501 
1 10 0 0 0 0 1 501 
3 10 0 0 0 0 1 503 
9 6 0 0 0 0 1 503 
9 7 0 0 0 0 1 506 
2 7 0 0 0 0 1 506 
10 6 0 0 0 0 1 506 
0 0 0 0 0 0 1 543 
0 0 0 0 0 0 2 508 511 
1 0 0 0 0 3 2 512 509 
8 0 0 0 0 7 2 513 510 
2 0 0 0 0 8 3 517 516 514 
8 0 0 0 0 6 3 517 516 514 
10 0 0 0 0 9 2 516 514 
3 0 0 0 0 7 2 516 515 
9 0 0 0 0 8 1 515 
7 0 0 0 0 10 1 518 
2 0 0 0 0 10 1 518 
8 0 0 0 0 7 1 518 
0 0 0 0 0 0 1 543 
0 0 0 0 0 0 3 520 523 525 
6 0 4 0 0 0 2 522 521 
1 0 5 0 0 0 2 527 524 
5 0 10 0 0 0 2 527 524 
6 0 8 0 0 0 3 529 527 526 
8 0 10 0 0 0 2 529 526 
1 0 9 0 0 0 2 527 526 
10 0 7 0 0 0 1 528 
2 0 8 0 0 0 1 528 
8 0 7 0 0 0 1 530 
7 0 7 0 0 0 1 530 
0 0 0 0 0 0 1 543 
0 0 0 0 0 0 1 532 
9 0 0 0 4 0 3 535 534 533 
6 0 0 0 7 0 2 537 536 
6 0 0 0 8 0 1 536 
9 0 0 0 9 0 1 536 
9 0 0 0 7 0 2 539 538 
8 0 0 0 5 0 1 538 
6 0 0 0 10 0 2 541 540 
3 0 0 0 7 0 2 541 540 
6 0 0 0 8 0 1 542 
5 0 0 0 10 0 1 542 
0 0 0 0 0 0 1 543 
0 0 0 0 0 0 0 
